NAME : sample2
TYPE : TSP
DIMENSION : 20
EDGE_WEIGHT_TYPE : EUC_2D
NODE_COORD_SECTION
	0	13,51	9,22
	1	11,52	10,33
	2	-14,89	-3,82
	3	19,96	-14,82
	4	-4,28	-14,01
	5	-18,54	12,03
	6	-1,31	-18,61
	7	4,6	0,46
	8	5,31	12,48
	9	7,72	-11,41
	10	-13,84	12,62
	11	-17,45	-12,24
	12	-17,7	-15,26
	13	0,62	-7,17
	14	11,79	16,83
	15	15,41	5,64
	16	16,35	-14,03
	17	-1,08	-5,34
	18	6,36	-10,99
	19	-17,69	-4,6
EOF